12 24 9 10
13 2 16 9 18 19 8 17 16 17 3 15 15 7 13 6 8 10 1 10 14 12 14 20 
7.85 7.95 4.6 4.32 6.18 6.61 7.65 6.11 0.51 2.25 1.19 3.53 4.45 6.14 4.13 7.39 1.84 2.77 0.23 2.27 3.09 5.01 1.55 7.09 
5.67 7.92 7.75 2.63 2.21 2.44 5.77 5.6 6.04 3.36 3.22 6 6.68 5.91 2.55 4.46 3.19 4.92 1.27 7.25 2.2 1.12 7.64 0.78 
0.36 2.8 1.78 1.58 2.41 7.37 2.46 0.99 6.23 7.94 2.39 0.55 1.84 0.33 4.8 2.07 1.8 4.92 7.88 5.33 4.76 6.79 0.74 2.84 
6.27 7.52 3.55 2.3 2.48 5.77 0.56 5.12 6.03 7.8 2.94 3.72 0.08 6.92 0.72 2.53 1.65 7.21 5.17 1.32 7.7 2.88 0.94 2.43 
1.79 6.97 6.89 3.41 5.85 6.79 3.67 6.37 4.36 5.12 0.75 7.52 6.62 1.6 5.45 5.25 7.55 1.29 2.79 1.91 7.4 0.37 3.75 6.03 
1.18 7.28 6.21 4.14 0.39 5.34 0.67 2.62 2.56 5.58 1.56 3.11 1.39 3.97 6.3 0.87 7.64 3.61 7.92 3.32 3.43 1.61 7.84 3.61 
2 0.27 1.19 7.56 6.55 5.04 4.42 4.68 6.74 1.08 1.95 6.38 1.06 2.93 0.31 6.42 5.14 6.74 7.46 7.33 4.93 5.59 5.3 7.43 
5.57 1.22 5.81 0.8 6.47 7.44 7.36 2.69 7.17 1.61 7.21 6.84 6.23 2.2 2.69 2.56 6.32 1.3 3.13 3.43 4.69 6.83 1.09 6.77 
5.23 4.97 2.08 0.71 1.04 0.02 3.57 7.53 4.92 5.13 6.66 7.71 6.99 2.3 1.28 3.74 4.16 5.46 2.15 5.04 6.69 0.72 3.45 7.71 
4 4 4 4 4 4 4 4 4 4 4 4 4 4 4 4 4 4 4 4 4 4 4 4 
0.84 2.78 0.01 2.54 2.92 7.53 1.25 0.95 3.32 6.2 7.33 2.96 4.47 6.57 6.48 1.65 7.53 7.09 6.93 0.88 6.65 0.52 4.53 0.89 
7.12 7.26 1.15 3.26 0.9 7.18 1.99 0.36 6.64 2.06 3.38 1.48 1.32 6.86 7.9 0.62 5.37 3 6.94 5.7 2.51 4.4 5.22 7.37 
1 1 1 1 1 1 1 1 1 1 1 1 1 1 1 1 1 1 1 1 1 1 1 1 
1 1 1 1 1 1 1 1 1 1 1 1 1 1 1 1 1 1 1 1 1 1 1 1 
1 1 1 1 1 1 1 1 1 1 1 1 1 1 1 1 1 1 1 1 1 1 1 1 
1 1 1 1 1 1 1 1 1 1 1 1 1 1 1 1 1 1 1 1 1 1 1 1 
1 1 1 1 1 1 1 1 1 1 1 1 1 1 1 1 1 1 1 1 1 1 1 1 
1 1 1 1 1 1 1 1 1 1 1 1 1 1 1 1 1 1 1 1 1 1 1 1 
1 1 1 1 1 1 1 1 1 1 1 1 1 1 1 1 1 1 1 1 1 1 1 1 
1 1 1 1 1 1 1 1 1 1 1 1 1 1 1 1 1 1 1 1 1 1 1 1 
1 1 1 1 1 1 1 1 1 1 1 1 1 1 1 1 1 1 1 1 1 1 1 1 
1 1 1 1 1 1 1 1 1 1 1 1 1 1 1 1 1 1 1 1 1 1 1 1 
1 1 1 1 1 1 1 1 1 1 1 1 1 1 1 1 1 1 1 1 1 1 1 1 
1 1 1 1 1 1 1 1 1 1 1 1 1 1 1 1 1 1 1 1 1 1 1 1 
0.01 0.01 0.01 0.01 0.01 0.01 0.01 0.01 0.01 0.01 0.01 0.01 0.01 0.01 0.01 0.01 0.01 0.01 0.01 0.01 0.01 0.01 0.01 0.01 
0.02 0.02 0.02 0.02 0.02 0.02 0.02 0.02 0.02 0.02 0.02 0.02 0.02 0.02 0.02 0.02 0.02 0.02 0.02 0.02 0.02 0.02 0.02 0.02 
0.03 0.03 0.03 0.03 0.03 0.03 0.03 0.03 0.03 0.03 0.03 0.03 0.03 0.03 0.03 0.03 0.03 0.03 0.03 0.03 0.03 0.03 0.03 0.03 
0.04 0.04 0.04 0.04 0.04 0.04 0.04 0.04 0.04 0.04 0.04 0.04 0.04 0.04 0.04 0.04 0.04 0.04 0.04 0.04 0.04 0.04 0.04 0.04 
0.05 0.05 0.05 0.05 0.05 0.05 0.05 0.05 0.05 0.05 0.05 0.05 0.05 0.05 0.05 0.05 0.05 0.05 0.05 0.05 0.05 0.05 0.05 0.05 
0.06 0.06 0.06 0.06 0.06 0.06 0.06 0.06 0.06 0.06 0.06 0.06 0.06 0.06 0.06 0.06 0.06 0.06 0.06 0.06 0.06 0.06 0.06 0.06 
0.07 0.07 0.07 0.07 0.07 0.07 0.07 0.07 0.07 0.07 0.07 0.07 0.07 0.07 0.07 0.07 0.07 0.07 0.07 0.07 0.07 0.07 0.07 0.07 
0.08 0.08 0.08 0.08 0.08 0.08 0.08 0.08 0.08 0.08 0.08 0.08 0.08 0.08 0.08 0.08 0.08 0.08 0.08 0.08 0.08 0.08 0.08 0.08 
0.09 0.09 0.09 0.09 0.09 0.09 0.09 0.09 0.09 0.09 0.09 0.09 0.09 0.09 0.09 0.09 0.09 0.09 0.09 0.09 0.09 0.09 0.09 0.09 
0.1 0.1 0.1 0.1 0.1 0.1 0.1 0.1 0.1 0.1 0.1 0.1 0.1 0.1 0.1 0.1 0.1 0.1 0.1 0.1 0.1 0.1 0.1 0.1 
0.5 0.5 0.5 0.5 0.5 0.5 0.5 0.5 0.5 0.5 0.5 0.5 0.5 0.5 0.5 0.5 0.5 0.5 0.5 0.5 0.5 0.5 0.5 0.5 
1 1 1 1 1 1 1 1 1 1 1 1 1 1 1 1 1 1 1 1 1 1 1 1 
